peakDumbCharging = 29600; 
Machine = anon_enum(16); 
machineSpeed = [3700,3700,3700,3700,3700,3700,3700,3700,3700,3700,3700,3700,3700,3700,3700,3700]; 
machineLoad = [3700,3700,3700,3700,3700,3700,3700,3700,3700,3700,3700,3700,3700,3700,3700,3700]; 
Car = anon_enum(38); 
demandCar = [1800,5320,31320,2560,21200,6960,11040,16720,3760,1920,28240,14480,13160,22640,10080,15800,17000,5680,4040,5600,11120,5960,9880,8960,18640,8840,17680,2560,7360,14640,5880,10000,11520,3240,15560,31840,11040,11480]; 
arrivalCar = [73,71,66,66,65,64,64,63,60,60,60,59,57,56,54,54,53,52,52,51,50,50,49,48,47,47,47,44,44,43,42,42,41,41,37,35,35,31]; 
departureCar = [75,75,78,68,73,72,68,70,65,63,73,65,62,65,60,61,62,55,54,55,55,52,53,53,57,53,53,47,49,49,47,50,47,44,42,49,39,35]; 
